Instance Name : r203
Date : 2022-07-20
Solution
Route 1 : 52 18 45 46 36 47 48 62 90 32 63 11 64 49 19 10 70 1
Route 2 : 27 69 31 88 7 82 8 83 60 5 84 17 86 16 61 100 37 98 93 96 89
Route 3 : 92 42 15 43 14 38 44 91 85 99 59 97 87 57 2 95 94 6 13
Route 4 : 53 40 58
Route 5 : 39 67 23 41 22 73 21 72 56 75 74 4 55 25 54 24 80 12 26
Route 6 : 33 51 65 20 30 50 76 3 79 78 81 9 66 71 35 34 29 68 77 28
